original problem has 3648 variables (192 bin, 0 int, 0 impl, 3456 cont) and 3312 constraints
1/1 feasible solution given by solution candidate storage, new primal bound 1.150344e+04

presolving:
(round 1, fast)       72 del vars, 68 del conss, 0 add conss, 2226 chg bounds, 0 chg sides, 0 chg coeffs, 0 upgd conss, 0 impls, 0 clqs
(round 2, fast)       146 del vars, 68 del conss, 0 add conss, 3757 chg bounds, 0 chg sides, 0 chg coeffs, 0 upgd conss, 0 impls, 0 clqs
(round 3, fast)       146 del vars, 68 del conss, 0 add conss, 4124 chg bounds, 74 chg sides, 0 chg coeffs, 0 upgd conss, 0 impls, 0 clqs
   (0.0s) running MILP presolver
   (0.0s) MILP presolver (25 rounds): 28 aggregations, 0 fixings, 297 bound changes
(round 4, medium)     174 del vars, 68 del conss, 0 add conss, 4449 chg bounds, 74 chg sides, 0 chg coeffs, 0 upgd conss, 0 impls, 0 clqs
(round 5, fast)       174 del vars, 96 del conss, 0 add conss, 4449 chg bounds, 74 chg sides, 0 chg coeffs, 0 upgd conss, 0 impls, 0 clqs
(round 6, exhaustive) 174 del vars, 96 del conss, 0 add conss, 4449 chg bounds, 74 chg sides, 0 chg coeffs, 960 upgd conss, 0 impls, 0 clqs
   (0.1s) probing cycle finished: starting next cycle
(round 7, exhaustive) 174 del vars, 96 del conss, 0 add conss, 4529 chg bounds, 74 chg sides, 0 chg coeffs, 960 upgd conss, 6957 impls, 20 clqs
   (0.1s) probing: 36/192 (18.8%) - 0 fixings, 0 aggregations, 6017 implications, 80 bound changes
   (0.1s) probing aborted: 50/50 successive totally useless probings
presolving (8 rounds: 8 fast, 4 medium, 3 exhaustive):
 174 deleted vars, 96 deleted constraints, 0 added constraints, 4529 tightened bounds, 0 added holes, 74 changed sides, 0 changed coefficients
 6957 implications, 20 cliques
presolved problem has 3474 variables (192 bin, 0 int, 0 impl, 3282 cont) and 3216 constraints
    960 constraints of type <varbound>
   2256 constraints of type <linear>
Presolving Time: 0.10
transformed 1/1 original solutions to the transformed problem space

 time | node  | left  |LP iter|LP it/n|mem/heur|mdpt |vars |cons |rows |cuts |sepa|confs|strbr|  dualbound   | primalbound  |  gap   | compl. 
  0.1s|     1 |     0 |  1720 |     - |    21M |   0 |3474 |3216 |3216 |   0 |  0 |   0 |   0 | 9.975296e+02 | 1.150344e+04 |1053.19%| unknown
  0.1s|     1 |     2 |  1720 |     - |    21M |   0 |3474 |3216 |3216 |   0 |  1 |   0 |   0 | 9.975296e+02 | 1.150344e+04 |1053.19%| unknown

SCIP Status        : solving was interrupted [node limit reached]
Solving Time (sec) : 0.15
Solving Nodes      : 1
Primal Bound       : +1.15034441250000e+04 (1 solutions)
Dual Bound         : +9.97529583333333e+02
Gap                : 1053.19 %
wrote problem to file /mnt/lscratch/users/dferrario/Adaptive-Cutsel-MILP/TransformedInstances/a1c1s1__trans__seed__1.mps
